45 2650 100000 0 0 15 30
12000 16000 0
 16822	   18649      319
 269	   1987       510
 4084	   28411      520
 17032	   20544      319
 23436	   8185       318
 14382	   23354      388
 1384	   23932      653
 2307	   807	      870
 8079	   21171      475
 15768	   3907       528
 18448	   4986       539
 16531	   22865      488
 6503	   11774      198
 15697	   18511      323
 19311	   16441      592
 1620	   9521        316
 17529	   5945        727
 17720	   1930        270
 5022	   15807       588
 7552	   2144        775
 19306	   13800       174
 11918	   8907        586
 17570	   13624       846
 22990	   19823       248
 3808	   27840       138
 9429	   3110        511
 6508	   9973        608
 11547	   17250       325
 6367	   2758        211
 22147	   29935       651
 7733	   19898       293
 9680	   9471        426
 15442	   13950       396
 14528	   13724       399
 9700	   28442       276
 5002	   11529       933
 18925	   16108       294
 22187	   224	       764
 23743	   20651       783
 9971	   8467        851
 4711	   24628       706
 9017	   4126        745
 14036	   11215       601
 12199	   15331       783
 8696	   23850       430
 
